outputs/r202.txt.out
filename: R202
Vehicles: 25, Capacity: 1000
Total customers : 101
No of routes: 25
Route #1: 53 58
Route #2: 40 21 73 74 72
Route #3: 41 22 75 56 4
Route #4: 39 67 23 80 12 26
Route #5: 54 55 25
Route #6: 68 77
Route #7: 76 50 1
Route #8: 69 34 78 79 3
Route #9: 33 81 9 51
Route #10: 71 35
Route #11: 65 29 24 13 94
Route #12: 89 6 95
Route #13: 97
Route #14: 87 57 2
Route #15: 15 43
Route #16: 42 92 59 96 99 5 84 17 60
Route #17: 52 18 83 8 46
Route #18: 45 82 48 47 36 49
Route #19: 7 62 11 64 19 88 10
Route #20: 90 32
Route #21: 31 63 70
Route #22: 30 20 66 93 85
Route #23: 61 16 44
Route #24: 14 38 86 91 100 37 98
Route #25: 27 28
Cost 1818
